(set-info :smt-lib-version 2.6)
(set-logic QF_NIA)
(set-info :source |
Generated by: Cristina Borralleras, Daniel Larraz, Albert Oliveras, Enric Rodriguez-Carbonell, Albert Rubio
Generated on: 2017-04-27
Generator: VeryMax
Application: Termination proving
Target solver: barcelogic
|)
(set-info :license "https://creativecommons.org/licenses/by/4.0/")
(set-info :category "industrial")
(set-info :status sat)
(declare-fun Nl4arg11 () Int)
(declare-fun Nl4arg21 () Int)
(declare-fun Nl4arg31 () Int)
(declare-fun Nl4arg41 () Int)
(declare-fun Nl4arg12 () Int)
(declare-fun Nl4arg22 () Int)
(declare-fun Nl4arg32 () Int)
(declare-fun Nl4arg42 () Int)
(declare-fun Nl4arg13 () Int)
(declare-fun Nl4arg23 () Int)
(declare-fun Nl4arg33 () Int)
(declare-fun Nl4arg43 () Int)
(declare-fun lam0n0 () Int)
(declare-fun lam0n1 () Int)
(declare-fun lam0n2 () Int)
(declare-fun lam0n3 () Int)
(declare-fun lam0n4 () Int)
(declare-fun lam0n5 () Int)
(declare-fun lam0n6 () Int)
(declare-fun Nl4CT1 () Int)
(declare-fun Nl4CT2 () Int)
(declare-fun Nl4CT3 () Int)
(declare-fun lam1n0 () Int)
(declare-fun lam1n1 () Int)
(declare-fun lam1n2 () Int)
(declare-fun lam1n3 () Int)
(declare-fun lam1n4 () Int)
(declare-fun lam1n5 () Int)
(declare-fun lam1n6 () Int)
(declare-fun lam2n0 () Int)
(declare-fun lam2n1 () Int)
(declare-fun lam2n2 () Int)
(declare-fun lam2n3 () Int)
(declare-fun lam2n4 () Int)
(declare-fun lam2n5 () Int)
(declare-fun lam2n6 () Int)
(declare-fun lam3n0 () Int)
(declare-fun lam3n1 () Int)
(declare-fun lam3n2 () Int)
(declare-fun lam3n3 () Int)
(declare-fun lam3n4 () Int)
(declare-fun lam3n5 () Int)
(declare-fun lam3n6 () Int)
(declare-fun lam4n0 () Int)
(declare-fun lam4n1 () Int)
(declare-fun lam4n2 () Int)
(declare-fun lam4n3 () Int)
(declare-fun lam4n4 () Int)
(declare-fun lam4n5 () Int)
(declare-fun lam4n6 () Int)
(declare-fun lam5n0 () Int)
(declare-fun lam5n1 () Int)
(declare-fun lam5n2 () Int)
(declare-fun lam5n3 () Int)
(declare-fun lam5n4 () Int)
(declare-fun lam5n5 () Int)
(declare-fun lam5n6 () Int)
(declare-fun lam6n0 () Int)
(declare-fun lam6n1 () Int)
(declare-fun lam6n2 () Int)
(declare-fun lam6n3 () Int)
(declare-fun lam6n4 () Int)
(declare-fun lam6n5 () Int)
(declare-fun lam6n6 () Int)
(declare-fun lam7n0 () Int)
(declare-fun lam7n1 () Int)
(declare-fun lam7n2 () Int)
(declare-fun lam7n3 () Int)
(declare-fun lam7n4 () Int)
(declare-fun lam7n5 () Int)
(declare-fun lam7n6 () Int)
(declare-fun lam8n0 () Int)
(declare-fun lam8n1 () Int)
(declare-fun lam8n2 () Int)
(declare-fun lam8n3 () Int)
(declare-fun lam8n4 () Int)
(declare-fun lam8n5 () Int)
(declare-fun lam8n6 () Int)
(declare-fun lam9n0 () Int)
(declare-fun lam9n1 () Int)
(declare-fun lam9n2 () Int)
(declare-fun lam9n3 () Int)
(declare-fun lam9n4 () Int)
(declare-fun lam9n5 () Int)
(declare-fun lam9n6 () Int)
(declare-fun lam10n0 () Int)
(declare-fun lam10n1 () Int)
(declare-fun lam10n2 () Int)
(declare-fun lam10n3 () Int)
(declare-fun lam10n4 () Int)
(declare-fun lam10n5 () Int)
(declare-fun lam10n6 () Int)
(declare-fun lam11n0 () Int)
(declare-fun lam11n1 () Int)
(declare-fun lam11n2 () Int)
(declare-fun lam11n3 () Int)
(declare-fun lam11n4 () Int)
(declare-fun lam11n5 () Int)
(declare-fun lam11n6 () Int)
(declare-fun lam12n0 () Int)
(declare-fun lam12n1 () Int)
(declare-fun lam12n2 () Int)
(declare-fun lam12n3 () Int)
(declare-fun lam12n4 () Int)
(declare-fun lam12n5 () Int)
(declare-fun lam12n6 () Int)
(declare-fun lam12n7 () Int)
(declare-fun lam13n0 () Int)
(declare-fun lam13n1 () Int)
(declare-fun lam13n2 () Int)
(declare-fun lam13n3 () Int)
(declare-fun lam13n4 () Int)
(declare-fun lam13n5 () Int)
(declare-fun lam13n6 () Int)
(declare-fun lam13n7 () Int)
(declare-fun lam14n0 () Int)
(declare-fun lam14n1 () Int)
(declare-fun lam14n2 () Int)
(declare-fun lam14n3 () Int)
(declare-fun lam14n4 () Int)
(declare-fun lam14n5 () Int)
(declare-fun lam14n6 () Int)
(declare-fun lam14n7 () Int)
(declare-fun undef5 () Int)
(declare-fun undef13 () Int)
(declare-fun undef14 () Int)
(declare-fun undef46 () Int)
(declare-fun undef6 () Int)
(declare-fun undef9 () Int)
(declare-fun undef10 () Int)
(declare-fun undef11 () Int)
(declare-fun undef12 () Int)
(declare-fun lam18n0 () Int)
(declare-fun lam18n1 () Int)
(declare-fun lam18n2 () Int)
(declare-fun lam18n3 () Int)
(declare-fun lam18n4 () Int)
(declare-fun lam18n5 () Int)
(declare-fun lam18n6 () Int)
(declare-fun RFN1_CT () Int)
(declare-fun RFN1_arg1 () Int)
(declare-fun RFN1_arg2 () Int)
(declare-fun RFN1_arg3 () Int)
(declare-fun RFN1_arg4 () Int)
(declare-fun lam16n0 () Int)
(declare-fun lam16n1 () Int)
(declare-fun lam16n2 () Int)
(declare-fun lam16n3 () Int)
(declare-fun lam16n4 () Int)
(declare-fun lam16n5 () Int)
(declare-fun lam16n6 () Int)
(declare-fun lam17n0 () Int)
(declare-fun lam17n1 () Int)
(declare-fun lam17n2 () Int)
(declare-fun lam17n3 () Int)
(declare-fun lam17n4 () Int)
(declare-fun lam17n5 () Int)
(declare-fun lam17n6 () Int)
(declare-fun lam15n0 () Int)
(declare-fun lam15n1 () Int)
(declare-fun lam15n2 () Int)
(declare-fun lam15n3 () Int)
(declare-fun lam15n4 () Int)
(declare-fun lam15n5 () Int)
(declare-fun lam15n6 () Int)
(assert ( and ( <= ( - 1 ) Nl4arg11 ) ( <= Nl4arg11 1 ) ( <= ( - 1 ) Nl4arg21 ) ( <= Nl4arg21 1 ) ( <= ( - 1 ) Nl4arg31 ) ( <= Nl4arg31 1 ) ( <= ( - 1 ) Nl4arg41 ) ( <= Nl4arg41 1 ) ( <= ( - 1 ) Nl4arg12 ) ( <= Nl4arg12 1 ) ( <= ( - 1 ) Nl4arg22 ) ( <= Nl4arg22 1 ) ( <= ( - 1 ) Nl4arg32 ) ( <= Nl4arg32 1 ) ( <= ( - 1 ) Nl4arg42 ) ( <= Nl4arg42 1 ) ( <= ( - 1 ) Nl4arg13 ) ( <= Nl4arg13 1 ) ( <= ( - 1 ) Nl4arg23 ) ( <= Nl4arg23 1 ) ( <= ( - 1 ) Nl4arg33 ) ( <= Nl4arg33 1 ) ( <= ( - 1 ) Nl4arg43 ) ( <= Nl4arg43 1 ) ))
(assert ( or ( and ( >= lam0n0 0 ) ( >= lam0n1 0 ) ( >= lam0n2 0 ) ( >= lam0n3 0 ) ( >= lam0n4 0 ) ( >= lam0n5 0 ) ( >= lam0n6 0 ) ( > ( + ( * 1 lam0n0 ) ( * 2 lam0n2 ) ( * 2 lam0n3 ) ( * Nl4CT1 lam0n4 ) ( * Nl4CT2 lam0n5 ) ( * Nl4CT3 lam0n6 ) ( - 1 ) ) 0 ) ( = ( + ( * ( - 1 ) lam0n2 ) ( * ( - 1 ) lam0n3 ) ( * Nl4arg11 lam0n4 ) ( * Nl4arg12 lam0n5 ) ( * Nl4arg13 lam0n6 ) ) 0 ) ( = ( + ( * Nl4arg21 lam0n4 ) ( * Nl4arg22 lam0n5 ) ( * Nl4arg23 lam0n6 ) ) 0 ) ( = ( + ( * Nl4arg31 lam0n4 ) ( * Nl4arg32 lam0n5 ) ( * Nl4arg33 lam0n6 ) ) 0 ) ( = ( + ( * Nl4arg41 lam0n4 ) ( * Nl4arg42 lam0n5 ) ( * Nl4arg43 lam0n6 ) ) 0 ) ( = ( + ( * ( - 1 ) lam0n1 ) ( * 1 lam0n3 ) ) 0 ) ( = ( * ( - 1 ) lam0n0 ) 0 ) ) ( and ( >= lam1n0 0 ) ( >= lam1n1 0 ) ( >= lam1n2 0 ) ( >= lam1n3 0 ) ( >= lam1n4 0 ) ( >= lam1n5 0 ) ( >= lam1n6 0 ) ( > ( + ( * 1 lam1n0 ) ( * 2 lam1n2 ) ( * 2 lam1n3 ) ( * Nl4CT1 lam1n4 ) ( * Nl4CT2 lam1n5 ) ( * Nl4CT3 lam1n6 ) ( - 1 ( + ( + ( + ( + Nl4CT1 ( * Nl4arg11 0 ) ) ( * Nl4arg21 0 ) ) ( * Nl4arg31 0 ) ) ( * Nl4arg41 0 ) ) ) ) 0 ) ( = ( + ( * ( - 1 ) lam1n2 ) ( * ( - 1 ) lam1n3 ) ( * Nl4arg11 lam1n4 ) ( * Nl4arg12 lam1n5 ) ( * Nl4arg13 lam1n6 ) ) 0 ) ( = ( + ( * Nl4arg21 lam1n4 ) ( * Nl4arg22 lam1n5 ) ( * Nl4arg23 lam1n6 ) ) 0 ) ( = ( + ( * Nl4arg31 lam1n4 ) ( * Nl4arg32 lam1n5 ) ( * Nl4arg33 lam1n6 ) ) 0 ) ( = ( + ( * Nl4arg41 lam1n4 ) ( * Nl4arg42 lam1n5 ) ( * Nl4arg43 lam1n6 ) ) 0 ) ( = ( + ( * ( - 1 ) lam1n1 ) ( * 1 lam1n3 ) ( - ( + 0 ( * Nl4arg11 1 ) ) ) ) 0 ) ( = ( - ( + 0 ( * Nl4arg21 1 ) ) ) 0 ) ( = ( - ( + 0 ( * Nl4arg31 1 ) ) ) 0 ) ( = ( - ( + 0 ( * Nl4arg41 1 ) ) ) 0 ) ( = ( * ( - 1 ) lam1n0 ) 0 ) ) ))
(assert ( or ( and ( >= lam0n0 0 ) ( >= lam0n1 0 ) ( >= lam0n2 0 ) ( >= lam0n3 0 ) ( >= lam0n4 0 ) ( >= lam0n5 0 ) ( >= lam0n6 0 ) ( > ( + ( * 1 lam0n0 ) ( * 2 lam0n2 ) ( * 2 lam0n3 ) ( * Nl4CT1 lam0n4 ) ( * Nl4CT2 lam0n5 ) ( * Nl4CT3 lam0n6 ) ( - 1 ) ) 0 ) ( = ( + ( * ( - 1 ) lam0n2 ) ( * ( - 1 ) lam0n3 ) ( * Nl4arg11 lam0n4 ) ( * Nl4arg12 lam0n5 ) ( * Nl4arg13 lam0n6 ) ) 0 ) ( = ( + ( * Nl4arg21 lam0n4 ) ( * Nl4arg22 lam0n5 ) ( * Nl4arg23 lam0n6 ) ) 0 ) ( = ( + ( * Nl4arg31 lam0n4 ) ( * Nl4arg32 lam0n5 ) ( * Nl4arg33 lam0n6 ) ) 0 ) ( = ( + ( * Nl4arg41 lam0n4 ) ( * Nl4arg42 lam0n5 ) ( * Nl4arg43 lam0n6 ) ) 0 ) ( = ( + ( * ( - 1 ) lam0n1 ) ( * 1 lam0n3 ) ) 0 ) ( = ( * ( - 1 ) lam0n0 ) 0 ) ) ( and ( >= lam2n0 0 ) ( >= lam2n1 0 ) ( >= lam2n2 0 ) ( >= lam2n3 0 ) ( >= lam2n4 0 ) ( >= lam2n5 0 ) ( >= lam2n6 0 ) ( > ( + ( * 1 lam2n0 ) ( * 2 lam2n2 ) ( * 2 lam2n3 ) ( * Nl4CT1 lam2n4 ) ( * Nl4CT2 lam2n5 ) ( * Nl4CT3 lam2n6 ) ( - 1 ( + ( + ( + ( + Nl4CT2 ( * Nl4arg12 0 ) ) ( * Nl4arg22 0 ) ) ( * Nl4arg32 0 ) ) ( * Nl4arg42 0 ) ) ) ) 0 ) ( = ( + ( * ( - 1 ) lam2n2 ) ( * ( - 1 ) lam2n3 ) ( * Nl4arg11 lam2n4 ) ( * Nl4arg12 lam2n5 ) ( * Nl4arg13 lam2n6 ) ) 0 ) ( = ( + ( * Nl4arg21 lam2n4 ) ( * Nl4arg22 lam2n5 ) ( * Nl4arg23 lam2n6 ) ) 0 ) ( = ( + ( * Nl4arg31 lam2n4 ) ( * Nl4arg32 lam2n5 ) ( * Nl4arg33 lam2n6 ) ) 0 ) ( = ( + ( * Nl4arg41 lam2n4 ) ( * Nl4arg42 lam2n5 ) ( * Nl4arg43 lam2n6 ) ) 0 ) ( = ( + ( * ( - 1 ) lam2n1 ) ( * 1 lam2n3 ) ( - ( + 0 ( * Nl4arg12 1 ) ) ) ) 0 ) ( = ( - ( + 0 ( * Nl4arg22 1 ) ) ) 0 ) ( = ( - ( + 0 ( * Nl4arg32 1 ) ) ) 0 ) ( = ( - ( + 0 ( * Nl4arg42 1 ) ) ) 0 ) ( = ( * ( - 1 ) lam2n0 ) 0 ) ) ))
(assert ( or ( and ( >= lam0n0 0 ) ( >= lam0n1 0 ) ( >= lam0n2 0 ) ( >= lam0n3 0 ) ( >= lam0n4 0 ) ( >= lam0n5 0 ) ( >= lam0n6 0 ) ( > ( + ( * 1 lam0n0 ) ( * 2 lam0n2 ) ( * 2 lam0n3 ) ( * Nl4CT1 lam0n4 ) ( * Nl4CT2 lam0n5 ) ( * Nl4CT3 lam0n6 ) ( - 1 ) ) 0 ) ( = ( + ( * ( - 1 ) lam0n2 ) ( * ( - 1 ) lam0n3 ) ( * Nl4arg11 lam0n4 ) ( * Nl4arg12 lam0n5 ) ( * Nl4arg13 lam0n6 ) ) 0 ) ( = ( + ( * Nl4arg21 lam0n4 ) ( * Nl4arg22 lam0n5 ) ( * Nl4arg23 lam0n6 ) ) 0 ) ( = ( + ( * Nl4arg31 lam0n4 ) ( * Nl4arg32 lam0n5 ) ( * Nl4arg33 lam0n6 ) ) 0 ) ( = ( + ( * Nl4arg41 lam0n4 ) ( * Nl4arg42 lam0n5 ) ( * Nl4arg43 lam0n6 ) ) 0 ) ( = ( + ( * ( - 1 ) lam0n1 ) ( * 1 lam0n3 ) ) 0 ) ( = ( * ( - 1 ) lam0n0 ) 0 ) ) ( and ( >= lam3n0 0 ) ( >= lam3n1 0 ) ( >= lam3n2 0 ) ( >= lam3n3 0 ) ( >= lam3n4 0 ) ( >= lam3n5 0 ) ( >= lam3n6 0 ) ( > ( + ( * 1 lam3n0 ) ( * 2 lam3n2 ) ( * 2 lam3n3 ) ( * Nl4CT1 lam3n4 ) ( * Nl4CT2 lam3n5 ) ( * Nl4CT3 lam3n6 ) ( - 1 ( + ( + ( + ( + Nl4CT3 ( * Nl4arg13 0 ) ) ( * Nl4arg23 0 ) ) ( * Nl4arg33 0 ) ) ( * Nl4arg43 0 ) ) ) ) 0 ) ( = ( + ( * ( - 1 ) lam3n2 ) ( * ( - 1 ) lam3n3 ) ( * Nl4arg11 lam3n4 ) ( * Nl4arg12 lam3n5 ) ( * Nl4arg13 lam3n6 ) ) 0 ) ( = ( + ( * Nl4arg21 lam3n4 ) ( * Nl4arg22 lam3n5 ) ( * Nl4arg23 lam3n6 ) ) 0 ) ( = ( + ( * Nl4arg31 lam3n4 ) ( * Nl4arg32 lam3n5 ) ( * Nl4arg33 lam3n6 ) ) 0 ) ( = ( + ( * Nl4arg41 lam3n4 ) ( * Nl4arg42 lam3n5 ) ( * Nl4arg43 lam3n6 ) ) 0 ) ( = ( + ( * ( - 1 ) lam3n1 ) ( * 1 lam3n3 ) ( - ( + 0 ( * Nl4arg13 1 ) ) ) ) 0 ) ( = ( - ( + 0 ( * Nl4arg23 1 ) ) ) 0 ) ( = ( - ( + 0 ( * Nl4arg33 1 ) ) ) 0 ) ( = ( - ( + 0 ( * Nl4arg43 1 ) ) ) 0 ) ( = ( * ( - 1 ) lam3n0 ) 0 ) ) ))
(assert ( or ( and ( >= lam4n0 0 ) ( >= lam4n1 0 ) ( >= lam4n2 0 ) ( >= lam4n3 0 ) ( >= lam4n4 0 ) ( >= lam4n5 0 ) ( >= lam4n6 0 ) ( > ( + ( * 1 lam4n0 ) ( * 2 lam4n2 ) ( * 3 lam4n3 ) ( * Nl4CT1 lam4n4 ) ( * Nl4CT2 lam4n5 ) ( * Nl4CT3 lam4n6 ) ( - 1 ) ) 0 ) ( = ( + ( * ( - 1 ) lam4n2 ) ( * ( - 1 ) lam4n3 ) ( * Nl4arg11 lam4n4 ) ( * Nl4arg12 lam4n5 ) ( * Nl4arg13 lam4n6 ) ) 0 ) ( = ( + ( * Nl4arg21 lam4n4 ) ( * Nl4arg22 lam4n5 ) ( * Nl4arg23 lam4n6 ) ) 0 ) ( = ( + ( * Nl4arg31 lam4n4 ) ( * Nl4arg32 lam4n5 ) ( * Nl4arg33 lam4n6 ) ) 0 ) ( = ( + ( * Nl4arg41 lam4n4 ) ( * Nl4arg42 lam4n5 ) ( * Nl4arg43 lam4n6 ) ) 0 ) ( = ( + ( * ( - 1 ) lam4n1 ) ( * 1 lam4n2 ) ) 0 ) ( = ( * ( - 1 ) lam4n0 ) 0 ) ) ( and ( >= lam5n0 0 ) ( >= lam5n1 0 ) ( >= lam5n2 0 ) ( >= lam5n3 0 ) ( >= lam5n4 0 ) ( >= lam5n5 0 ) ( >= lam5n6 0 ) ( > ( + ( * 1 lam5n0 ) ( * 2 lam5n2 ) ( * 3 lam5n3 ) ( * Nl4CT1 lam5n4 ) ( * Nl4CT2 lam5n5 ) ( * Nl4CT3 lam5n6 ) ( - 1 ( + ( + ( + ( + Nl4CT1 ( * Nl4arg11 0 ) ) ( * Nl4arg21 0 ) ) ( * Nl4arg31 0 ) ) ( * Nl4arg41 0 ) ) ) ) 0 ) ( = ( + ( * ( - 1 ) lam5n2 ) ( * ( - 1 ) lam5n3 ) ( * Nl4arg11 lam5n4 ) ( * Nl4arg12 lam5n5 ) ( * Nl4arg13 lam5n6 ) ) 0 ) ( = ( + ( * Nl4arg21 lam5n4 ) ( * Nl4arg22 lam5n5 ) ( * Nl4arg23 lam5n6 ) ) 0 ) ( = ( + ( * Nl4arg31 lam5n4 ) ( * Nl4arg32 lam5n5 ) ( * Nl4arg33 lam5n6 ) ) 0 ) ( = ( + ( * Nl4arg41 lam5n4 ) ( * Nl4arg42 lam5n5 ) ( * Nl4arg43 lam5n6 ) ) 0 ) ( = ( + ( * ( - 1 ) lam5n1 ) ( * 1 lam5n2 ) ( - ( + 0 ( * Nl4arg11 1 ) ) ) ) 0 ) ( = ( - ( + 0 ( * Nl4arg21 1 ) ) ) 0 ) ( = ( - ( + 0 ( * Nl4arg31 1 ) ) ) 0 ) ( = ( - ( + 0 ( * Nl4arg41 1 ) ) ) 0 ) ( = ( * ( - 1 ) lam5n0 ) 0 ) ) ))
(assert ( or ( and ( >= lam4n0 0 ) ( >= lam4n1 0 ) ( >= lam4n2 0 ) ( >= lam4n3 0 ) ( >= lam4n4 0 ) ( >= lam4n5 0 ) ( >= lam4n6 0 ) ( > ( + ( * 1 lam4n0 ) ( * 2 lam4n2 ) ( * 3 lam4n3 ) ( * Nl4CT1 lam4n4 ) ( * Nl4CT2 lam4n5 ) ( * Nl4CT3 lam4n6 ) ( - 1 ) ) 0 ) ( = ( + ( * ( - 1 ) lam4n2 ) ( * ( - 1 ) lam4n3 ) ( * Nl4arg11 lam4n4 ) ( * Nl4arg12 lam4n5 ) ( * Nl4arg13 lam4n6 ) ) 0 ) ( = ( + ( * Nl4arg21 lam4n4 ) ( * Nl4arg22 lam4n5 ) ( * Nl4arg23 lam4n6 ) ) 0 ) ( = ( + ( * Nl4arg31 lam4n4 ) ( * Nl4arg32 lam4n5 ) ( * Nl4arg33 lam4n6 ) ) 0 ) ( = ( + ( * Nl4arg41 lam4n4 ) ( * Nl4arg42 lam4n5 ) ( * Nl4arg43 lam4n6 ) ) 0 ) ( = ( + ( * ( - 1 ) lam4n1 ) ( * 1 lam4n2 ) ) 0 ) ( = ( * ( - 1 ) lam4n0 ) 0 ) ) ( and ( >= lam6n0 0 ) ( >= lam6n1 0 ) ( >= lam6n2 0 ) ( >= lam6n3 0 ) ( >= lam6n4 0 ) ( >= lam6n5 0 ) ( >= lam6n6 0 ) ( > ( + ( * 1 lam6n0 ) ( * 2 lam6n2 ) ( * 3 lam6n3 ) ( * Nl4CT1 lam6n4 ) ( * Nl4CT2 lam6n5 ) ( * Nl4CT3 lam6n6 ) ( - 1 ( + ( + ( + ( + Nl4CT2 ( * Nl4arg12 0 ) ) ( * Nl4arg22 0 ) ) ( * Nl4arg32 0 ) ) ( * Nl4arg42 0 ) ) ) ) 0 ) ( = ( + ( * ( - 1 ) lam6n2 ) ( * ( - 1 ) lam6n3 ) ( * Nl4arg11 lam6n4 ) ( * Nl4arg12 lam6n5 ) ( * Nl4arg13 lam6n6 ) ) 0 ) ( = ( + ( * Nl4arg21 lam6n4 ) ( * Nl4arg22 lam6n5 ) ( * Nl4arg23 lam6n6 ) ) 0 ) ( = ( + ( * Nl4arg31 lam6n4 ) ( * Nl4arg32 lam6n5 ) ( * Nl4arg33 lam6n6 ) ) 0 ) ( = ( + ( * Nl4arg41 lam6n4 ) ( * Nl4arg42 lam6n5 ) ( * Nl4arg43 lam6n6 ) ) 0 ) ( = ( + ( * ( - 1 ) lam6n1 ) ( * 1 lam6n2 ) ( - ( + 0 ( * Nl4arg12 1 ) ) ) ) 0 ) ( = ( - ( + 0 ( * Nl4arg22 1 ) ) ) 0 ) ( = ( - ( + 0 ( * Nl4arg32 1 ) ) ) 0 ) ( = ( - ( + 0 ( * Nl4arg42 1 ) ) ) 0 ) ( = ( * ( - 1 ) lam6n0 ) 0 ) ) ))
(assert ( or ( and ( >= lam4n0 0 ) ( >= lam4n1 0 ) ( >= lam4n2 0 ) ( >= lam4n3 0 ) ( >= lam4n4 0 ) ( >= lam4n5 0 ) ( >= lam4n6 0 ) ( > ( + ( * 1 lam4n0 ) ( * 2 lam4n2 ) ( * 3 lam4n3 ) ( * Nl4CT1 lam4n4 ) ( * Nl4CT2 lam4n5 ) ( * Nl4CT3 lam4n6 ) ( - 1 ) ) 0 ) ( = ( + ( * ( - 1 ) lam4n2 ) ( * ( - 1 ) lam4n3 ) ( * Nl4arg11 lam4n4 ) ( * Nl4arg12 lam4n5 ) ( * Nl4arg13 lam4n6 ) ) 0 ) ( = ( + ( * Nl4arg21 lam4n4 ) ( * Nl4arg22 lam4n5 ) ( * Nl4arg23 lam4n6 ) ) 0 ) ( = ( + ( * Nl4arg31 lam4n4 ) ( * Nl4arg32 lam4n5 ) ( * Nl4arg33 lam4n6 ) ) 0 ) ( = ( + ( * Nl4arg41 lam4n4 ) ( * Nl4arg42 lam4n5 ) ( * Nl4arg43 lam4n6 ) ) 0 ) ( = ( + ( * ( - 1 ) lam4n1 ) ( * 1 lam4n2 ) ) 0 ) ( = ( * ( - 1 ) lam4n0 ) 0 ) ) ( and ( >= lam7n0 0 ) ( >= lam7n1 0 ) ( >= lam7n2 0 ) ( >= lam7n3 0 ) ( >= lam7n4 0 ) ( >= lam7n5 0 ) ( >= lam7n6 0 ) ( > ( + ( * 1 lam7n0 ) ( * 2 lam7n2 ) ( * 3 lam7n3 ) ( * Nl4CT1 lam7n4 ) ( * Nl4CT2 lam7n5 ) ( * Nl4CT3 lam7n6 ) ( - 1 ( + ( + ( + ( + Nl4CT3 ( * Nl4arg13 0 ) ) ( * Nl4arg23 0 ) ) ( * Nl4arg33 0 ) ) ( * Nl4arg43 0 ) ) ) ) 0 ) ( = ( + ( * ( - 1 ) lam7n2 ) ( * ( - 1 ) lam7n3 ) ( * Nl4arg11 lam7n4 ) ( * Nl4arg12 lam7n5 ) ( * Nl4arg13 lam7n6 ) ) 0 ) ( = ( + ( * Nl4arg21 lam7n4 ) ( * Nl4arg22 lam7n5 ) ( * Nl4arg23 lam7n6 ) ) 0 ) ( = ( + ( * Nl4arg31 lam7n4 ) ( * Nl4arg32 lam7n5 ) ( * Nl4arg33 lam7n6 ) ) 0 ) ( = ( + ( * Nl4arg41 lam7n4 ) ( * Nl4arg42 lam7n5 ) ( * Nl4arg43 lam7n6 ) ) 0 ) ( = ( + ( * ( - 1 ) lam7n1 ) ( * 1 lam7n2 ) ( - ( + 0 ( * Nl4arg13 1 ) ) ) ) 0 ) ( = ( - ( + 0 ( * Nl4arg23 1 ) ) ) 0 ) ( = ( - ( + 0 ( * Nl4arg33 1 ) ) ) 0 ) ( = ( - ( + 0 ( * Nl4arg43 1 ) ) ) 0 ) ( = ( * ( - 1 ) lam7n0 ) 0 ) ) ))
(assert ( or ( and ( >= lam8n0 0 ) ( >= lam8n1 0 ) ( >= lam8n2 0 ) ( >= lam8n3 0 ) ( >= lam8n4 0 ) ( >= lam8n5 0 ) ( >= lam8n6 0 ) ( > ( + ( * 1 lam8n0 ) ( * 1 lam8n1 ) ( * 3 lam8n3 ) ( * Nl4CT1 lam8n4 ) ( * Nl4CT2 lam8n5 ) ( * Nl4CT3 lam8n6 ) ( - 1 ) ) 0 ) ( = ( + ( * ( - 1 ) lam8n2 ) ( * ( - 1 ) lam8n3 ) ( * Nl4arg11 lam8n4 ) ( * Nl4arg12 lam8n5 ) ( * Nl4arg13 lam8n6 ) ) 0 ) ( = ( + ( * Nl4arg21 lam8n4 ) ( * Nl4arg22 lam8n5 ) ( * Nl4arg23 lam8n6 ) ) 0 ) ( = ( + ( * Nl4arg31 lam8n4 ) ( * Nl4arg32 lam8n5 ) ( * Nl4arg33 lam8n6 ) ) 0 ) ( = ( + ( * Nl4arg41 lam8n4 ) ( * Nl4arg42 lam8n5 ) ( * Nl4arg43 lam8n6 ) ) 0 ) ( = ( + ( * ( - 1 ) lam8n0 ) ( * 1 lam8n2 ) ) 0 ) ( = ( * ( - 1 ) lam8n1 ) 0 ) ) ( and ( >= lam9n0 0 ) ( >= lam9n1 0 ) ( >= lam9n2 0 ) ( >= lam9n3 0 ) ( >= lam9n4 0 ) ( >= lam9n5 0 ) ( >= lam9n6 0 ) ( > ( + ( * 1 lam9n0 ) ( * 1 lam9n1 ) ( * 3 lam9n3 ) ( * Nl4CT1 lam9n4 ) ( * Nl4CT2 lam9n5 ) ( * Nl4CT3 lam9n6 ) ( - 1 ( + ( + ( + ( + Nl4CT1 ( * Nl4arg11 0 ) ) ( * Nl4arg21 0 ) ) ( * Nl4arg31 0 ) ) ( * Nl4arg41 0 ) ) ) ) 0 ) ( = ( + ( * ( - 1 ) lam9n2 ) ( * ( - 1 ) lam9n3 ) ( * Nl4arg11 lam9n4 ) ( * Nl4arg12 lam9n5 ) ( * Nl4arg13 lam9n6 ) ) 0 ) ( = ( + ( * Nl4arg21 lam9n4 ) ( * Nl4arg22 lam9n5 ) ( * Nl4arg23 lam9n6 ) ) 0 ) ( = ( + ( * Nl4arg31 lam9n4 ) ( * Nl4arg32 lam9n5 ) ( * Nl4arg33 lam9n6 ) ) 0 ) ( = ( + ( * Nl4arg41 lam9n4 ) ( * Nl4arg42 lam9n5 ) ( * Nl4arg43 lam9n6 ) ) 0 ) ( = ( + ( * ( - 1 ) lam9n0 ) ( * 1 lam9n2 ) ( - ( + 0 ( * Nl4arg11 1 ) ) ) ) 0 ) ( = ( - ( + 0 ( * Nl4arg21 1 ) ) ) 0 ) ( = ( - ( + 0 ( * Nl4arg31 1 ) ) ) 0 ) ( = ( - ( + 0 ( * Nl4arg41 1 ) ) ) 0 ) ( = ( * ( - 1 ) lam9n1 ) 0 ) ) ))
(assert ( or ( and ( >= lam8n0 0 ) ( >= lam8n1 0 ) ( >= lam8n2 0 ) ( >= lam8n3 0 ) ( >= lam8n4 0 ) ( >= lam8n5 0 ) ( >= lam8n6 0 ) ( > ( + ( * 1 lam8n0 ) ( * 1 lam8n1 ) ( * 3 lam8n3 ) ( * Nl4CT1 lam8n4 ) ( * Nl4CT2 lam8n5 ) ( * Nl4CT3 lam8n6 ) ( - 1 ) ) 0 ) ( = ( + ( * ( - 1 ) lam8n2 ) ( * ( - 1 ) lam8n3 ) ( * Nl4arg11 lam8n4 ) ( * Nl4arg12 lam8n5 ) ( * Nl4arg13 lam8n6 ) ) 0 ) ( = ( + ( * Nl4arg21 lam8n4 ) ( * Nl4arg22 lam8n5 ) ( * Nl4arg23 lam8n6 ) ) 0 ) ( = ( + ( * Nl4arg31 lam8n4 ) ( * Nl4arg32 lam8n5 ) ( * Nl4arg33 lam8n6 ) ) 0 ) ( = ( + ( * Nl4arg41 lam8n4 ) ( * Nl4arg42 lam8n5 ) ( * Nl4arg43 lam8n6 ) ) 0 ) ( = ( + ( * ( - 1 ) lam8n0 ) ( * 1 lam8n2 ) ) 0 ) ( = ( * ( - 1 ) lam8n1 ) 0 ) ) ( and ( >= lam10n0 0 ) ( >= lam10n1 0 ) ( >= lam10n2 0 ) ( >= lam10n3 0 ) ( >= lam10n4 0 ) ( >= lam10n5 0 ) ( >= lam10n6 0 ) ( > ( + ( * 1 lam10n0 ) ( * 1 lam10n1 ) ( * 3 lam10n3 ) ( * Nl4CT1 lam10n4 ) ( * Nl4CT2 lam10n5 ) ( * Nl4CT3 lam10n6 ) ( - 1 ( + ( + ( + ( + Nl4CT2 ( * Nl4arg12 0 ) ) ( * Nl4arg22 0 ) ) ( * Nl4arg32 0 ) ) ( * Nl4arg42 0 ) ) ) ) 0 ) ( = ( + ( * ( - 1 ) lam10n2 ) ( * ( - 1 ) lam10n3 ) ( * Nl4arg11 lam10n4 ) ( * Nl4arg12 lam10n5 ) ( * Nl4arg13 lam10n6 ) ) 0 ) ( = ( + ( * Nl4arg21 lam10n4 ) ( * Nl4arg22 lam10n5 ) ( * Nl4arg23 lam10n6 ) ) 0 ) ( = ( + ( * Nl4arg31 lam10n4 ) ( * Nl4arg32 lam10n5 ) ( * Nl4arg33 lam10n6 ) ) 0 ) ( = ( + ( * Nl4arg41 lam10n4 ) ( * Nl4arg42 lam10n5 ) ( * Nl4arg43 lam10n6 ) ) 0 ) ( = ( + ( * ( - 1 ) lam10n0 ) ( * 1 lam10n2 ) ( - ( + 0 ( * Nl4arg12 1 ) ) ) ) 0 ) ( = ( - ( + 0 ( * Nl4arg22 1 ) ) ) 0 ) ( = ( - ( + 0 ( * Nl4arg32 1 ) ) ) 0 ) ( = ( - ( + 0 ( * Nl4arg42 1 ) ) ) 0 ) ( = ( * ( - 1 ) lam10n1 ) 0 ) ) ))
(assert ( or ( and ( >= lam8n0 0 ) ( >= lam8n1 0 ) ( >= lam8n2 0 ) ( >= lam8n3 0 ) ( >= lam8n4 0 ) ( >= lam8n5 0 ) ( >= lam8n6 0 ) ( > ( + ( * 1 lam8n0 ) ( * 1 lam8n1 ) ( * 3 lam8n3 ) ( * Nl4CT1 lam8n4 ) ( * Nl4CT2 lam8n5 ) ( * Nl4CT3 lam8n6 ) ( - 1 ) ) 0 ) ( = ( + ( * ( - 1 ) lam8n2 ) ( * ( - 1 ) lam8n3 ) ( * Nl4arg11 lam8n4 ) ( * Nl4arg12 lam8n5 ) ( * Nl4arg13 lam8n6 ) ) 0 ) ( = ( + ( * Nl4arg21 lam8n4 ) ( * Nl4arg22 lam8n5 ) ( * Nl4arg23 lam8n6 ) ) 0 ) ( = ( + ( * Nl4arg31 lam8n4 ) ( * Nl4arg32 lam8n5 ) ( * Nl4arg33 lam8n6 ) ) 0 ) ( = ( + ( * Nl4arg41 lam8n4 ) ( * Nl4arg42 lam8n5 ) ( * Nl4arg43 lam8n6 ) ) 0 ) ( = ( + ( * ( - 1 ) lam8n0 ) ( * 1 lam8n2 ) ) 0 ) ( = ( * ( - 1 ) lam8n1 ) 0 ) ) ( and ( >= lam11n0 0 ) ( >= lam11n1 0 ) ( >= lam11n2 0 ) ( >= lam11n3 0 ) ( >= lam11n4 0 ) ( >= lam11n5 0 ) ( >= lam11n6 0 ) ( > ( + ( * 1 lam11n0 ) ( * 1 lam11n1 ) ( * 3 lam11n3 ) ( * Nl4CT1 lam11n4 ) ( * Nl4CT2 lam11n5 ) ( * Nl4CT3 lam11n6 ) ( - 1 ( + ( + ( + ( + Nl4CT3 ( * Nl4arg13 0 ) ) ( * Nl4arg23 0 ) ) ( * Nl4arg33 0 ) ) ( * Nl4arg43 0 ) ) ) ) 0 ) ( = ( + ( * ( - 1 ) lam11n2 ) ( * ( - 1 ) lam11n3 ) ( * Nl4arg11 lam11n4 ) ( * Nl4arg12 lam11n5 ) ( * Nl4arg13 lam11n6 ) ) 0 ) ( = ( + ( * Nl4arg21 lam11n4 ) ( * Nl4arg22 lam11n5 ) ( * Nl4arg23 lam11n6 ) ) 0 ) ( = ( + ( * Nl4arg31 lam11n4 ) ( * Nl4arg32 lam11n5 ) ( * Nl4arg33 lam11n6 ) ) 0 ) ( = ( + ( * Nl4arg41 lam11n4 ) ( * Nl4arg42 lam11n5 ) ( * Nl4arg43 lam11n6 ) ) 0 ) ( = ( + ( * ( - 1 ) lam11n0 ) ( * 1 lam11n2 ) ( - ( + 0 ( * Nl4arg13 1 ) ) ) ) 0 ) ( = ( - ( + 0 ( * Nl4arg23 1 ) ) ) 0 ) ( = ( - ( + 0 ( * Nl4arg33 1 ) ) ) 0 ) ( = ( - ( + 0 ( * Nl4arg43 1 ) ) ) 0 ) ( = ( * ( - 1 ) lam11n1 ) 0 ) ) ))
(assert ( and ( <= ( + 1 ( * ( - 1 ) undef5 ) ) 0 ) ( <= ( + 1 ( * ( - 1 ) undef13 ) ) 0 ) ( <= ( + 1 ( * ( - 1 ) undef14 ) ) 0 ) ( <= ( + 1 ( * ( - 1 ) undef46 ) ) 0 ) ( <= ( + undef5 ( * ( - 1 ) undef46 ) ) 0 ) ( <= ( * ( - 1 ) undef6 ) 0 ) ( <= ( + ( * ( - 1 ) undef6 ) undef9 ) 0 ) ( not ( <= ( + ( - 1 ) undef9 ) 0 ) ) ( <= ( + ( + ( + ( + ( + Nl4CT1 ( * Nl4arg11 0 ) ) ( * Nl4arg21 0 ) ) ( * Nl4arg31 0 ) ) ( * Nl4arg41 0 ) ) ( * ( + 0 ( * Nl4arg11 1 ) ) undef9 ) ( * ( + 0 ( * Nl4arg21 1 ) ) undef10 ) ( * ( + 0 ( * Nl4arg31 1 ) ) undef11 ) ( * ( + 0 ( * Nl4arg41 1 ) ) undef12 ) ) 0 ) ( <= ( + ( + ( + ( + ( + Nl4CT2 ( * Nl4arg12 0 ) ) ( * Nl4arg22 0 ) ) ( * Nl4arg32 0 ) ) ( * Nl4arg42 0 ) ) ( * ( + 0 ( * Nl4arg12 1 ) ) undef9 ) ( * ( + 0 ( * Nl4arg22 1 ) ) undef10 ) ( * ( + 0 ( * Nl4arg32 1 ) ) undef11 ) ( * ( + 0 ( * Nl4arg42 1 ) ) undef12 ) ) 0 ) ( <= ( + ( + ( + ( + ( + Nl4CT3 ( * Nl4arg13 0 ) ) ( * Nl4arg23 0 ) ) ( * Nl4arg33 0 ) ) ( * Nl4arg43 0 ) ) ( * ( + 0 ( * Nl4arg13 1 ) ) undef9 ) ( * ( + 0 ( * Nl4arg23 1 ) ) undef10 ) ( * ( + 0 ( * Nl4arg33 1 ) ) undef11 ) ( * ( + 0 ( * Nl4arg43 1 ) ) undef12 ) ) 0 ) ))
(assert ( or ( and ( and ( >= lam18n0 0 ) ( >= lam18n1 0 ) ( >= lam18n2 0 ) ( >= lam18n3 0 ) ( >= lam18n4 0 ) ( >= lam18n5 0 ) ( >= lam18n6 0 ) ( > ( + ( * 1 lam18n0 ) ( * 1 lam18n1 ) ( * 3 lam18n3 ) ( * Nl4CT1 lam18n4 ) ( * Nl4CT2 lam18n5 ) ( * Nl4CT3 lam18n6 ) ( - 1 ( - ( + ( + ( + ( + RFN1_CT ( * RFN1_arg1 0 ) ) ( * RFN1_arg2 0 ) ) ( * RFN1_arg3 0 ) ) ( * RFN1_arg4 0 ) ) RFN1_CT ) ) ) 0 ) ( = ( + ( * ( - 1 ) lam18n2 ) ( * ( - 1 ) lam18n3 ) ( * Nl4arg11 lam18n4 ) ( * Nl4arg12 lam18n5 ) ( * Nl4arg13 lam18n6 ) ( - ( - RFN1_arg1 ) ) ) 0 ) ( = ( + ( * Nl4arg21 lam18n4 ) ( * Nl4arg22 lam18n5 ) ( * Nl4arg23 lam18n6 ) ( - ( - RFN1_arg2 ) ) ) 0 ) ( = ( + ( * Nl4arg31 lam18n4 ) ( * Nl4arg32 lam18n5 ) ( * Nl4arg33 lam18n6 ) ( - ( - RFN1_arg3 ) ) ) 0 ) ( = ( + ( * Nl4arg41 lam18n4 ) ( * Nl4arg42 lam18n5 ) ( * Nl4arg43 lam18n6 ) ( - ( - RFN1_arg4 ) ) ) 0 ) ( = ( + ( * ( - 1 ) lam18n0 ) ( * 1 lam18n2 ) ( - ( + 0 ( * RFN1_arg1 1 ) ) ) ) 0 ) ( = ( - ( + 0 ( * RFN1_arg2 1 ) ) ) 0 ) ( = ( - ( + 0 ( * RFN1_arg3 1 ) ) ) 0 ) ( = ( - ( + 0 ( * RFN1_arg4 1 ) ) ) 0 ) ( = ( * ( - 1 ) lam18n1 ) 0 ) ) ( and ( and ( >= lam16n0 0 ) ( >= lam16n1 0 ) ( >= lam16n2 0 ) ( >= lam16n3 0 ) ( >= lam16n4 0 ) ( >= lam16n5 0 ) ( >= lam16n6 0 ) ( > ( + ( * 1 lam16n0 ) ( * 1 lam16n1 ) ( * 3 lam16n3 ) ( * Nl4CT1 lam16n4 ) ( * Nl4CT2 lam16n5 ) ( * Nl4CT3 lam16n6 ) ( - 1 ( - RFN1_CT ) ) ) 0 ) ( = ( + ( * ( - 1 ) lam16n2 ) ( * ( - 1 ) lam16n3 ) ( * Nl4arg11 lam16n4 ) ( * Nl4arg12 lam16n5 ) ( * Nl4arg13 lam16n6 ) ( - ( - RFN1_arg1 ) ) ) 0 ) ( = ( + ( * Nl4arg21 lam16n4 ) ( * Nl4arg22 lam16n5 ) ( * Nl4arg23 lam16n6 ) ( - ( - RFN1_arg2 ) ) ) 0 ) ( = ( + ( * Nl4arg31 lam16n4 ) ( * Nl4arg32 lam16n5 ) ( * Nl4arg33 lam16n6 ) ( - ( - RFN1_arg3 ) ) ) 0 ) ( = ( + ( * Nl4arg41 lam16n4 ) ( * Nl4arg42 lam16n5 ) ( * Nl4arg43 lam16n6 ) ( - ( - RFN1_arg4 ) ) ) 0 ) ( = ( + ( * ( - 1 ) lam16n0 ) ( * 1 lam16n2 ) ) 0 ) ( = ( * ( - 1 ) lam16n1 ) 0 ) ) ( and ( >= lam17n0 0 ) ( >= lam17n1 0 ) ( >= lam17n2 0 ) ( >= lam17n3 0 ) ( >= lam17n4 0 ) ( >= lam17n5 0 ) ( >= lam17n6 0 ) ( > ( + ( * 1 lam17n0 ) ( * 1 lam17n1 ) ( * 3 lam17n3 ) ( * Nl4CT1 lam17n4 ) ( * Nl4CT2 lam17n5 ) ( * Nl4CT3 lam17n6 ) ( - 1 ( + ( - ( + ( + ( + ( + RFN1_CT ( * RFN1_arg1 0 ) ) ( * RFN1_arg2 0 ) ) ( * RFN1_arg3 0 ) ) ( * RFN1_arg4 0 ) ) RFN1_CT ) 1 ) ) ) 0 ) ( = ( + ( * ( - 1 ) lam17n2 ) ( * ( - 1 ) lam17n3 ) ( * Nl4arg11 lam17n4 ) ( * Nl4arg12 lam17n5 ) ( * Nl4arg13 lam17n6 ) ( - ( - RFN1_arg1 ) ) ) 0 ) ( = ( + ( * Nl4arg21 lam17n4 ) ( * Nl4arg22 lam17n5 ) ( * Nl4arg23 lam17n6 ) ( - ( - RFN1_arg2 ) ) ) 0 ) ( = ( + ( * Nl4arg31 lam17n4 ) ( * Nl4arg32 lam17n5 ) ( * Nl4arg33 lam17n6 ) ( - ( - RFN1_arg3 ) ) ) 0 ) ( = ( + ( * Nl4arg41 lam17n4 ) ( * Nl4arg42 lam17n5 ) ( * Nl4arg43 lam17n6 ) ( - ( - RFN1_arg4 ) ) ) 0 ) ( = ( + ( * ( - 1 ) lam17n0 ) ( * 1 lam17n2 ) ( - ( + 0 ( * RFN1_arg1 1 ) ) ) ) 0 ) ( = ( - ( + 0 ( * RFN1_arg2 1 ) ) ) 0 ) ( = ( - ( + 0 ( * RFN1_arg3 1 ) ) ) 0 ) ( = ( - ( + 0 ( * RFN1_arg4 1 ) ) ) 0 ) ( = ( * ( - 1 ) lam17n1 ) 0 ) ) ) ) ( and ( >= lam15n0 0 ) ( >= lam15n1 0 ) ( >= lam15n2 0 ) ( >= lam15n3 0 ) ( >= lam15n4 0 ) ( >= lam15n5 0 ) ( >= lam15n6 0 ) ( > ( + ( * 1 lam15n0 ) ( * 1 lam15n1 ) ( * 3 lam15n3 ) ( * Nl4CT1 lam15n4 ) ( * Nl4CT2 lam15n5 ) ( * Nl4CT3 lam15n6 ) ( - 1 ) ) 0 ) ( = ( + ( * ( - 1 ) lam15n2 ) ( * ( - 1 ) lam15n3 ) ( * Nl4arg11 lam15n4 ) ( * Nl4arg12 lam15n5 ) ( * Nl4arg13 lam15n6 ) ) 0 ) ( = ( + ( * Nl4arg21 lam15n4 ) ( * Nl4arg22 lam15n5 ) ( * Nl4arg23 lam15n6 ) ) 0 ) ( = ( + ( * Nl4arg31 lam15n4 ) ( * Nl4arg32 lam15n5 ) ( * Nl4arg33 lam15n6 ) ) 0 ) ( = ( + ( * Nl4arg41 lam15n4 ) ( * Nl4arg42 lam15n5 ) ( * Nl4arg43 lam15n6 ) ) 0 ) ( = ( + ( * ( - 1 ) lam15n0 ) ( * 1 lam15n2 ) ) 0 ) ( = ( * ( - 1 ) lam15n1 ) 0 ) ) ))
(check-sat)
(exit)
